c This is QMaxSAT 2017 based on 14.07
c This is Glucose 3.0
c This is MiniSat 2.2.0
c WARNING: for repeatability, setting FPU to use double precision
c card = mrwto, comp = 0, pmodel = 0, narr = 4, mct = 42, verb = 0
cr firstCPXsol 0 0 0
c top = 127531
c |  Number of variables:    74296                                            |
c |  Number of clauses:      53708122                                         |
c |  Weight of hard clauses: 127531                                           |
c |  Number of soft clauses: 6888                                             |
c |  Number of unit soft clauses: 6888                                        |
c |  Maximum Cardinality (by unit): 510120       (510120      )               |
c last restart ## conflicts  :  318 5269 
o 1861 | cpuTime 4.75012 s
c Sum of weights = 127530
c A number of soft clauses remained = 1722
c MRWTO encoding for Pseudo-Boolean Constraints
c sizeMax=1861
c No.0 Divisor=13	generated by pow1
c No.1 Divisor=13	generated by pow1
c No.2 Divisor=13	generated by pow1
c p0= 13	p1= 13	p2= 13	
c number of digits = 4
c linkingVar[0].size = 13, linkingVar[1].size = 13, linkingVar[2].size = 12, linkingVar[3].size = 1, 
c Pseudo-Boolean Constraints: 37584 variables and 383259 clauses
c Sum of weights = 127530
c A number of soft clauses remained = 1722
c MRWTO encoding for Pseudo-Boolean Constraints
c sizeMax=1861
c No.0 Divisor=13	generated by pow1
c No.1 Divisor=13	generated by pow1
c No.2 Divisor=13	generated by pow1
c p0= 13	p1= 13	p2= 13	
c number of digits = 4
c linkingVar[0].size = 13, linkingVar[1].size = 13, linkingVar[2].size = 12, linkingVar[3].size = 1, 
c Pseudo-Boolean Constraints: 37584 variables and 383259 clauses
c Sum of weights = 127530
c A number of soft clauses remained = 1722
c MRWTO encoding for Pseudo-Boolean Constraints
c sizeMax=1861
c No.0 Divisor=13	generated by pow1
c No.1 Divisor=13	generated by pow1
c No.2 Divisor=13	generated by pow1
c p0= 13	p1= 13	p2= 13	
c number of digits = 4
c linkingVar[0].size = 13, linkingVar[1].size = 13, linkingVar[2].size = 12, linkingVar[3].size = 1, 
c Pseudo-Boolean Constraints: 37584 variables and 383259 clauses
c Sum of weights = 127530
c A number of soft clauses remained = 1722
c MRWTO encoding for Pseudo-Boolean Constraints
c sizeMax=1861
c No.0 Divisor=13	generated by pow1
c No.1 Divisor=13	generated by pow1
c No.2 Divisor=13	generated by pow1
c p0= 13	p1= 13	p2= 13	
c number of digits = 4
c linkingVar[0].size = 13, linkingVar[1].size = 13, linkingVar[2].size = 12, linkingVar[3].size = 1, 
c Pseudo-Boolean Constraints: 37584 variables and 383259 clauses
c last restart ## conflicts  :  252 11980 
o 1438 | cpuTime 1880.44 s
s UNKNOWN
c Search is stopped by a limit (maybe time-limit)
cr positiVarArr: [ | 7@1(1->7) | 81@1(2->39) | 264@1(7->12) | 489@1(12->27) | 564@1(14->18) | 715@1(18->1) | 1121@1(27->29) | 1212@1(29->36) | 1472@1(36->2) | 1610@1(39->14) | 1805@2(1->41) | 1972@2(5->40) | 2291@2(13->23) | 2389@2(15->37) | 2478@2(17->42) | 2595@2(20->33) | 2723@2(23->35) | 2789@2(25->17) | 2983@2(30->1) | 3029@2(31->5) | 3081@2(32->15) | 3121@2(33->13) | 3222@2(35->30) | 3296@2(37->20) | 3343@2(38->25) | 3440@2(40->38) | 3475@2(41->31) | 3518@2(42->32) | 3556@3(1->28) | 3846@3(8->24) | 4192@3(16->34) | 4510@3(24->16) | 4670@3(28->8) | 4915@3(34->1) | 5298@4(1->6) | 5395@4(3->19) | 5428@4(4->10) | 5505@4(6->3) | 5629@4(9->1) | 5692@4(10->22) | 5716@4(11->4) | 6074@4(19->26) | 6141@4(21->9) | 6195@4(22->21) | 6353@4(26->11) | ]
cr the 1-th chain: [ 1->7->12->27->29->36->2->39->14->18->1 ] (#non-depot=9) {#cumul.=10}
cr the 2-th chain: [ 1->41->31->5->40->38->25->17->42->32->15->37->20->33->13->23->35->30->1 ] (#non-depot=17) {#cumul.=27}
cr the 3-th chain: [ 1->28->8->24->16->34->1 ] (#non-depot=5) {#cumul.=32}
cr the 4-th chain: [ 1->6->3->19->26->11->4->10->22->21->9->1 ] (#non-depot=10) {#cumul.=42}
c Latest Answer = 0 by 2 loops
c restarts              : 39142
c conflicts             : 10256618       (2870 /sec)
c decisions             : 148610092      (0.00 % random) (41585 /sec)
c propagations          : 10206828927    (2856120 /sec)
c conflict literals     : 5948116647     (4.21 % deleted)
c Memory used           : 5499.00 MB
c CPU time              : 3573.67 s
